125
126
93
96
152
459
660
578
102
320
360
846
504
500
86
96
735
78
448
450
70
416
820
155
576
148
494
880
660
450
480
174
920
396
100
672
124
294
228
135
720
442
459
328
240
846
555
156
258
32
600
390
140
230
140
676
252
403
528
333
513
572
231
357
40
522
329
252
250
430
320
735
38
280
765
578
832
697
600
912
407
26
396
495
50
234
29
552
700
325
714
372
147
760
297
308
510
816
360
600
